NAME 
ROWS
 N  OBJ
 G  R0      
 G  R1      
 G  R2      
 G  R3      
 G  R4      
 G  R5      
 G  R6      
 G  R7      
 G  R8      
 G  R9      
 G  R10     
 G  R11     
 G  R12     
 G  R13     
 G  R14     
 G  R15     
 G  R16     
 G  R17     
 G  R18     
 G  R19     
 G  R20     
 G  R21     
 G  R22     
 G  R23     
 G  R24     
 G  R25     
 G  R26     
 G  R27     
 G  R28     
 G  R29     
 G  R30     
 G  R31     
 G  R32     
 G  R33     
 G  R34     
 G  R35     
 G  R36     
 G  R37     
 G  R38     
 G  R39     
 G  R40     
 G  R41     
 G  R42     
 G  R43     
 G  R44     
 G  R45     
 G  R46     
 G  R47     
 G  R48     
 G  R49     
 G  R50     
 G  R51     
 G  R52     
 G  R53     
 G  R54     
 G  R55     
 G  R56     
 G  R57     
 G  R58     
 G  R59     
 G  R60     
 G  R61     
 G  R62     
 G  R63     
 G  R64     
 G  R65     
 G  R66     
 G  R67     
 G  R68     
 G  R69     
 G  R70     
 G  R71     
 G  R72     
 G  R73     
 G  R74     
 G  R75     
 G  R76     
 G  R77     
 G  R78     
 G  R79     
 G  R80     
 G  R81     
 G  R82     
 G  R83     
 G  R84     
 G  R85     
 G  R86     
 G  R87     
 G  R88     
 G  R89     
 G  R90     
 G  R91     
 G  R92     
 G  R93     
 G  R94     
 G  R95     
 G  R96     
 G  R97     
 G  R98     
 G  R99     
 G  R100    
 G  R101    
 G  R102    
 G  R103    
 G  R104    
 G  R105    
 G  R106    
 G  R107    
 G  R108    
 G  R109    
 G  R110    
 G  R111    
 G  R112    
 G  R113    
 G  R114    
 G  R115    
 G  R116    
 G  R117    
 G  R118    
 G  R119    
 G  R120    
 G  R121    
 G  R122    
 G  R123    
 G  R124    
 G  R125    
 G  R126    
 G  R127    
 G  R128    
 G  R129    
 G  R130    
 G  R131    
 G  R132    
 G  R133    
 G  R134    
 G  R135    
 G  R136    
 G  R137    
 G  R138    
 G  R139    
 G  R140    
 G  R141    
 G  R142    
 G  R143    
 G  R144    
 G  R145    
 G  R146    
 G  R147    
 G  R148    
 G  R149    
 G  R150    
 G  R151    
 G  R152    
 G  R153    
 G  R154    
 G  R155    
 G  R156    
 G  R157    
 G  R158    
 G  R159    
 G  R160    
 G  R161    
 G  R162    
 G  R163    
 G  R164    
 G  R165    
 G  R166    
 G  R167    
 G  R168    
 G  R169    
 G  R170    
 G  R171    
 G  R172    
 G  R173    
 G  R174    
 G  R175    
 G  R176    
 G  R177    
 G  R178    
 G  R179    
 G  R180    
 G  R181    
 G  R182    
 G  R183    
 G  R184    
 G  R185    
 G  R186    
 G  R187    
 G  R188    
 G  R189    
 G  R190    
 G  R191    
 G  R192    
 G  R193    
 G  R194    
 G  R195    
 G  R196    
 G  R197    
 G  R198    
 G  R199    
 G  R200    
 G  R201    
 G  R202    
 G  R203    
 G  R204    
 G  R205    
 G  R206    
 G  R207    
 G  R208    
 G  R209    
COLUMNS
    x0        OBJ       1
    x0        R0        1
    x0        R1        1
    x0        R5        1
    x0        R15       1
    x0        R35       1
    x0        R70       1
    x0        R126      1
    x1        OBJ       1
    x1        R0        1
    x1        R2        1
    x1        R6        1
    x1        R16       1
    x1        R36       1
    x1        R71       1
    x1        R127      1
    x2        OBJ       1
    x2        R0        1
    x2        R3        1
    x2        R7        1
    x2        R17       1
    x2        R37       1
    x2        R72       1
    x2        R128      1
    x3        OBJ       1
    x3        R0        1
    x3        R4        1
    x3        R8        1
    x3        R18       1
    x3        R38       1
    x3        R73       1
    x3        R129      1
    x4        OBJ       1
    x4        R1        1
    x4        R2        1
    x4        R9        1
    x4        R19       1
    x4        R39       1
    x4        R74       1
    x4        R130      1
    x5        OBJ       1
    x5        R1        1
    x5        R3        1
    x5        R10       1
    x5        R20       1
    x5        R40       1
    x5        R75       1
    x5        R131      1
    x6        OBJ       1
    x6        R1        1
    x6        R4        1
    x6        R11       1
    x6        R21       1
    x6        R41       1
    x6        R76       1
    x6        R132      1
    x7        OBJ       1
    x7        R2        1
    x7        R3        1
    x7        R12       1
    x7        R22       1
    x7        R42       1
    x7        R77       1
    x7        R133      1
    x8        OBJ       1
    x8        R2        1
    x8        R4        1
    x8        R13       1
    x8        R23       1
    x8        R43       1
    x8        R78       1
    x8        R134      1
    x9        OBJ       1
    x9        R3        1
    x9        R4        1
    x9        R14       1
    x9        R24       1
    x9        R44       1
    x9        R79       1
    x9        R135      1
    x10       OBJ       1
    x10       R5        1
    x10       R6        1
    x10       R9        1
    x10       R25       1
    x10       R45       1
    x10       R80       1
    x10       R136      1
    x11       OBJ       1
    x11       R5        1
    x11       R7        1
    x11       R10       1
    x11       R26       1
    x11       R46       1
    x11       R81       1
    x11       R137      1
    x12       OBJ       1
    x12       R5        1
    x12       R8        1
    x12       R11       1
    x12       R27       1
    x12       R47       1
    x12       R82       1
    x12       R138      1
    x13       OBJ       1
    x13       R6        1
    x13       R7        1
    x13       R12       1
    x13       R28       1
    x13       R48       1
    x13       R83       1
    x13       R139      1
    x14       OBJ       1
    x14       R6        1
    x14       R8        1
    x14       R13       1
    x14       R29       1
    x14       R49       1
    x14       R84       1
    x14       R140      1
    x15       OBJ       1
    x15       R7        1
    x15       R8        1
    x15       R14       1
    x15       R30       1
    x15       R50       1
    x15       R85       1
    x15       R141      1
    x16       OBJ       1
    x16       R9        1
    x16       R10       1
    x16       R12       1
    x16       R31       1
    x16       R51       1
    x16       R86       1
    x16       R142      1
    x17       OBJ       1
    x17       R9        1
    x17       R11       1
    x17       R13       1
    x17       R32       1
    x17       R52       1
    x17       R87       1
    x17       R143      1
    x18       OBJ       1
    x18       R10       1
    x18       R11       1
    x18       R14       1
    x18       R33       1
    x18       R53       1
    x18       R88       1
    x18       R144      1
    x19       OBJ       1
    x19       R12       1
    x19       R13       1
    x19       R14       1
    x19       R34       1
    x19       R54       1
    x19       R89       1
    x19       R145      1
    x20       OBJ       1
    x20       R15       1
    x20       R16       1
    x20       R19       1
    x20       R25       1
    x20       R55       1
    x20       R90       1
    x20       R146      1
    x21       OBJ       1
    x21       R15       1
    x21       R17       1
    x21       R20       1
    x21       R26       1
    x21       R56       1
    x21       R91       1
    x21       R147      1
    x22       OBJ       1
    x22       R15       1
    x22       R18       1
    x22       R21       1
    x22       R27       1
    x22       R57       1
    x22       R92       1
    x22       R148      1
    x23       OBJ       1
    x23       R16       1
    x23       R17       1
    x23       R22       1
    x23       R28       1
    x23       R58       1
    x23       R93       1
    x23       R149      1
    x24       OBJ       1
    x24       R16       1
    x24       R18       1
    x24       R23       1
    x24       R29       1
    x24       R59       1
    x24       R94       1
    x24       R150      1
    x25       OBJ       1
    x25       R17       1
    x25       R18       1
    x25       R24       1
    x25       R30       1
    x25       R60       1
    x25       R95       1
    x25       R151      1
    x26       OBJ       1
    x26       R19       1
    x26       R20       1
    x26       R22       1
    x26       R31       1
    x26       R61       1
    x26       R96       1
    x26       R152      1
    x27       OBJ       1
    x27       R19       1
    x27       R21       1
    x27       R23       1
    x27       R32       1
    x27       R62       1
    x27       R97       1
    x27       R153      1
    x28       OBJ       1
    x28       R20       1
    x28       R21       1
    x28       R24       1
    x28       R33       1
    x28       R63       1
    x28       R98       1
    x28       R154      1
    x29       OBJ       1
    x29       R22       1
    x29       R23       1
    x29       R24       1
    x29       R34       1
    x29       R64       1
    x29       R99       1
    x29       R155      1
    x30       OBJ       1
    x30       R25       1
    x30       R26       1
    x30       R28       1
    x30       R31       1
    x30       R65       1
    x30       R100      1
    x30       R156      1
    x31       OBJ       1
    x31       R25       1
    x31       R27       1
    x31       R29       1
    x31       R32       1
    x31       R66       1
    x31       R101      1
    x31       R157      1
    x32       OBJ       1
    x32       R26       1
    x32       R27       1
    x32       R30       1
    x32       R33       1
    x32       R67       1
    x32       R102      1
    x32       R158      1
    x33       OBJ       1
    x33       R28       1
    x33       R29       1
    x33       R30       1
    x33       R34       1
    x33       R68       1
    x33       R103      1
    x33       R159      1
    x34       OBJ       1
    x34       R31       1
    x34       R32       1
    x34       R33       1
    x34       R34       1
    x34       R69       1
    x34       R104      1
    x34       R160      1
    x35       OBJ       1
    x35       R35       1
    x35       R36       1
    x35       R39       1
    x35       R45       1
    x35       R55       1
    x35       R105      1
    x35       R161      1
    x36       OBJ       1
    x36       R35       1
    x36       R37       1
    x36       R40       1
    x36       R46       1
    x36       R56       1
    x36       R106      1
    x36       R162      1
    x37       OBJ       1
    x37       R35       1
    x37       R38       1
    x37       R41       1
    x37       R47       1
    x37       R57       1
    x37       R107      1
    x37       R163      1
    x38       OBJ       1
    x38       R36       1
    x38       R37       1
    x38       R42       1
    x38       R48       1
    x38       R58       1
    x38       R108      1
    x38       R164      1
    x39       OBJ       1
    x39       R36       1
    x39       R38       1
    x39       R43       1
    x39       R49       1
    x39       R59       1
    x39       R109      1
    x39       R165      1
    x40       OBJ       1
    x40       R37       1
    x40       R38       1
    x40       R44       1
    x40       R50       1
    x40       R60       1
    x40       R110      1
    x40       R166      1
    x41       OBJ       1
    x41       R39       1
    x41       R40       1
    x41       R42       1
    x41       R51       1
    x41       R61       1
    x41       R111      1
    x41       R167      1
    x42       OBJ       1
    x42       R39       1
    x42       R41       1
    x42       R43       1
    x42       R52       1
    x42       R62       1
    x42       R112      1
    x42       R168      1
    x43       OBJ       1
    x43       R40       1
    x43       R41       1
    x43       R44       1
    x43       R53       1
    x43       R63       1
    x43       R113      1
    x43       R169      1
    x44       OBJ       1
    x44       R42       1
    x44       R43       1
    x44       R44       1
    x44       R54       1
    x44       R64       1
    x44       R114      1
    x44       R170      1
    x45       OBJ       1
    x45       R45       1
    x45       R46       1
    x45       R48       1
    x45       R51       1
    x45       R65       1
    x45       R115      1
    x45       R171      1
    x46       OBJ       1
    x46       R45       1
    x46       R47       1
    x46       R49       1
    x46       R52       1
    x46       R66       1
    x46       R116      1
    x46       R172      1
    x47       OBJ       1
    x47       R46       1
    x47       R47       1
    x47       R50       1
    x47       R53       1
    x47       R67       1
    x47       R117      1
    x47       R173      1
    x48       OBJ       1
    x48       R48       1
    x48       R49       1
    x48       R50       1
    x48       R54       1
    x48       R68       1
    x48       R118      1
    x48       R174      1
    x49       OBJ       1
    x49       R51       1
    x49       R52       1
    x49       R53       1
    x49       R54       1
    x49       R69       1
    x49       R119      1
    x49       R175      1
    x50       OBJ       1
    x50       R55       1
    x50       R56       1
    x50       R58       1
    x50       R61       1
    x50       R65       1
    x50       R120      1
    x50       R176      1
    x51       OBJ       1
    x51       R55       1
    x51       R57       1
    x51       R59       1
    x51       R62       1
    x51       R66       1
    x51       R121      1
    x51       R177      1
    x52       OBJ       1
    x52       R56       1
    x52       R57       1
    x52       R60       1
    x52       R63       1
    x52       R67       1
    x52       R122      1
    x52       R178      1
    x53       OBJ       1
    x53       R58       1
    x53       R59       1
    x53       R60       1
    x53       R64       1
    x53       R68       1
    x53       R123      1
    x53       R179      1
    x54       OBJ       1
    x54       R61       1
    x54       R62       1
    x54       R63       1
    x54       R64       1
    x54       R69       1
    x54       R124      1
    x54       R180      1
    x55       OBJ       1
    x55       R65       1
    x55       R66       1
    x55       R67       1
    x55       R68       1
    x55       R69       1
    x55       R125      1
    x55       R181      1
    x56       OBJ       1
    x56       R70       1
    x56       R71       1
    x56       R74       1
    x56       R80       1
    x56       R90       1
    x56       R105      1
    x56       R182      1
    x57       OBJ       1
    x57       R70       1
    x57       R72       1
    x57       R75       1
    x57       R81       1
    x57       R91       1
    x57       R106      1
    x57       R183      1
    x58       OBJ       1
    x58       R70       1
    x58       R73       1
    x58       R76       1
    x58       R82       1
    x58       R92       1
    x58       R107      1
    x58       R184      1
    x59       OBJ       1
    x59       R71       1
    x59       R72       1
    x59       R77       1
    x59       R83       1
    x59       R93       1
    x59       R108      1
    x59       R185      1
    x60       OBJ       1
    x60       R71       1
    x60       R73       1
    x60       R78       1
    x60       R84       1
    x60       R94       1
    x60       R109      1
    x60       R186      1
    x61       OBJ       1
    x61       R72       1
    x61       R73       1
    x61       R79       1
    x61       R85       1
    x61       R95       1
    x61       R110      1
    x61       R187      1
    x62       OBJ       1
    x62       R74       1
    x62       R75       1
    x62       R77       1
    x62       R86       1
    x62       R96       1
    x62       R111      1
    x62       R188      1
    x63       OBJ       1
    x63       R74       1
    x63       R76       1
    x63       R78       1
    x63       R87       1
    x63       R97       1
    x63       R112      1
    x63       R189      1
    x64       OBJ       1
    x64       R75       1
    x64       R76       1
    x64       R79       1
    x64       R88       1
    x64       R98       1
    x64       R113      1
    x64       R190      1
    x65       OBJ       1
    x65       R77       1
    x65       R78       1
    x65       R79       1
    x65       R89       1
    x65       R99       1
    x65       R114      1
    x65       R191      1
    x66       OBJ       1
    x66       R80       1
    x66       R81       1
    x66       R83       1
    x66       R86       1
    x66       R100      1
    x66       R115      1
    x66       R192      1
    x67       OBJ       1
    x67       R80       1
    x67       R82       1
    x67       R84       1
    x67       R87       1
    x67       R101      1
    x67       R116      1
    x67       R193      1
    x68       OBJ       1
    x68       R81       1
    x68       R82       1
    x68       R85       1
    x68       R88       1
    x68       R102      1
    x68       R117      1
    x68       R194      1
    x69       OBJ       1
    x69       R83       1
    x69       R84       1
    x69       R85       1
    x69       R89       1
    x69       R103      1
    x69       R118      1
    x69       R195      1
    x70       OBJ       1
    x70       R86       1
    x70       R87       1
    x70       R88       1
    x70       R89       1
    x70       R104      1
    x70       R119      1
    x70       R196      1
    x71       OBJ       1
    x71       R90       1
    x71       R91       1
    x71       R93       1
    x71       R96       1
    x71       R100      1
    x71       R120      1
    x71       R197      1
    x72       OBJ       1
    x72       R90       1
    x72       R92       1
    x72       R94       1
    x72       R97       1
    x72       R101      1
    x72       R121      1
    x72       R198      1
    x73       OBJ       1
    x73       R91       1
    x73       R92       1
    x73       R95       1
    x73       R98       1
    x73       R102      1
    x73       R122      1
    x73       R199      1
    x74       OBJ       1
    x74       R93       1
    x74       R94       1
    x74       R95       1
    x74       R99       1
    x74       R103      1
    x74       R123      1
    x74       R200      1
    x75       OBJ       1
    x75       R96       1
    x75       R97       1
    x75       R98       1
    x75       R99       1
    x75       R104      1
    x75       R124      1
    x75       R201      1
    x76       OBJ       1
    x76       R100      1
    x76       R101      1
    x76       R102      1
    x76       R103      1
    x76       R104      1
    x76       R125      1
    x76       R202      1
    x77       OBJ       1
    x77       R105      1
    x77       R106      1
    x77       R108      1
    x77       R111      1
    x77       R115      1
    x77       R120      1
    x77       R203      1
    x78       OBJ       1
    x78       R105      1
    x78       R107      1
    x78       R109      1
    x78       R112      1
    x78       R116      1
    x78       R121      1
    x78       R204      1
    x79       OBJ       1
    x79       R106      1
    x79       R107      1
    x79       R110      1
    x79       R113      1
    x79       R117      1
    x79       R122      1
    x79       R205      1
    x80       OBJ       1
    x80       R108      1
    x80       R109      1
    x80       R110      1
    x80       R114      1
    x80       R118      1
    x80       R123      1
    x80       R206      1
    x81       OBJ       1
    x81       R111      1
    x81       R112      1
    x81       R113      1
    x81       R114      1
    x81       R119      1
    x81       R124      1
    x81       R207      1
    x82       OBJ       1
    x82       R115      1
    x82       R116      1
    x82       R117      1
    x82       R118      1
    x82       R119      1
    x82       R125      1
    x82       R208      1
    x83       OBJ       1
    x83       R120      1
    x83       R121      1
    x83       R122      1
    x83       R123      1
    x83       R124      1
    x83       R125      1
    x83       R209      1
    x84       OBJ       1
    x84       R126      1
    x84       R127      1
    x84       R130      1
    x84       R136      1
    x84       R146      1
    x84       R161      1
    x84       R182      1
    x85       OBJ       1
    x85       R126      1
    x85       R128      1
    x85       R131      1
    x85       R137      1
    x85       R147      1
    x85       R162      1
    x85       R183      1
    x86       OBJ       1
    x86       R126      1
    x86       R129      1
    x86       R132      1
    x86       R138      1
    x86       R148      1
    x86       R163      1
    x86       R184      1
    x87       OBJ       1
    x87       R127      1
    x87       R128      1
    x87       R133      1
    x87       R139      1
    x87       R149      1
    x87       R164      1
    x87       R185      1
    x88       OBJ       1
    x88       R127      1
    x88       R129      1
    x88       R134      1
    x88       R140      1
    x88       R150      1
    x88       R165      1
    x88       R186      1
    x89       OBJ       1
    x89       R128      1
    x89       R129      1
    x89       R135      1
    x89       R141      1
    x89       R151      1
    x89       R166      1
    x89       R187      1
    x90       OBJ       1
    x90       R130      1
    x90       R131      1
    x90       R133      1
    x90       R142      1
    x90       R152      1
    x90       R167      1
    x90       R188      1
    x91       OBJ       1
    x91       R130      1
    x91       R132      1
    x91       R134      1
    x91       R143      1
    x91       R153      1
    x91       R168      1
    x91       R189      1
    x92       OBJ       1
    x92       R131      1
    x92       R132      1
    x92       R135      1
    x92       R144      1
    x92       R154      1
    x92       R169      1
    x92       R190      1
    x93       OBJ       1
    x93       R133      1
    x93       R134      1
    x93       R135      1
    x93       R145      1
    x93       R155      1
    x93       R170      1
    x93       R191      1
    x94       OBJ       1
    x94       R136      1
    x94       R137      1
    x94       R139      1
    x94       R142      1
    x94       R156      1
    x94       R171      1
    x94       R192      1
    x95       OBJ       1
    x95       R136      1
    x95       R138      1
    x95       R140      1
    x95       R143      1
    x95       R157      1
    x95       R172      1
    x95       R193      1
    x96       OBJ       1
    x96       R137      1
    x96       R138      1
    x96       R141      1
    x96       R144      1
    x96       R158      1
    x96       R173      1
    x96       R194      1
    x97       OBJ       1
    x97       R139      1
    x97       R140      1
    x97       R141      1
    x97       R145      1
    x97       R159      1
    x97       R174      1
    x97       R195      1
    x98       OBJ       1
    x98       R142      1
    x98       R143      1
    x98       R144      1
    x98       R145      1
    x98       R160      1
    x98       R175      1
    x98       R196      1
    x99       OBJ       1
    x99       R146      1
    x99       R147      1
    x99       R149      1
    x99       R152      1
    x99       R156      1
    x99       R176      1
    x99       R197      1
    x100      OBJ       1
    x100      R146      1
    x100      R148      1
    x100      R150      1
    x100      R153      1
    x100      R157      1
    x100      R177      1
    x100      R198      1
    x101      OBJ       1
    x101      R147      1
    x101      R148      1
    x101      R151      1
    x101      R154      1
    x101      R158      1
    x101      R178      1
    x101      R199      1
    x102      OBJ       1
    x102      R149      1
    x102      R150      1
    x102      R151      1
    x102      R155      1
    x102      R159      1
    x102      R179      1
    x102      R200      1
    x103      OBJ       1
    x103      R152      1
    x103      R153      1
    x103      R154      1
    x103      R155      1
    x103      R160      1
    x103      R180      1
    x103      R201      1
    x104      OBJ       1
    x104      R156      1
    x104      R157      1
    x104      R158      1
    x104      R159      1
    x104      R160      1
    x104      R181      1
    x104      R202      1
    x105      OBJ       1
    x105      R161      1
    x105      R162      1
    x105      R164      1
    x105      R167      1
    x105      R171      1
    x105      R176      1
    x105      R203      1
    x106      OBJ       1
    x106      R161      1
    x106      R163      1
    x106      R165      1
    x106      R168      1
    x106      R172      1
    x106      R177      1
    x106      R204      1
    x107      OBJ       1
    x107      R162      1
    x107      R163      1
    x107      R166      1
    x107      R169      1
    x107      R173      1
    x107      R178      1
    x107      R205      1
    x108      OBJ       1
    x108      R164      1
    x108      R165      1
    x108      R166      1
    x108      R170      1
    x108      R174      1
    x108      R179      1
    x108      R206      1
    x109      OBJ       1
    x109      R167      1
    x109      R168      1
    x109      R169      1
    x109      R170      1
    x109      R175      1
    x109      R180      1
    x109      R207      1
    x110      OBJ       1
    x110      R171      1
    x110      R172      1
    x110      R173      1
    x110      R174      1
    x110      R175      1
    x110      R181      1
    x110      R208      1
    x111      OBJ       1
    x111      R176      1
    x111      R177      1
    x111      R178      1
    x111      R179      1
    x111      R180      1
    x111      R181      1
    x111      R209      1
    x112      OBJ       1
    x112      R182      1
    x112      R183      1
    x112      R185      1
    x112      R188      1
    x112      R192      1
    x112      R197      1
    x112      R203      1
    x113      OBJ       1
    x113      R182      1
    x113      R184      1
    x113      R186      1
    x113      R189      1
    x113      R193      1
    x113      R198      1
    x113      R204      1
    x114      OBJ       1
    x114      R183      1
    x114      R184      1
    x114      R187      1
    x114      R190      1
    x114      R194      1
    x114      R199      1
    x114      R205      1
    x115      OBJ       1
    x115      R185      1
    x115      R186      1
    x115      R187      1
    x115      R191      1
    x115      R195      1
    x115      R200      1
    x115      R206      1
    x116      OBJ       1
    x116      R188      1
    x116      R189      1
    x116      R190      1
    x116      R191      1
    x116      R196      1
    x116      R201      1
    x116      R207      1
    x117      OBJ       1
    x117      R192      1
    x117      R193      1
    x117      R194      1
    x117      R195      1
    x117      R196      1
    x117      R202      1
    x117      R208      1
    x118      OBJ       1
    x118      R197      1
    x118      R198      1
    x118      R199      1
    x118      R200      1
    x118      R201      1
    x118      R202      1
    x118      R209      1
    x119      OBJ       1
    x119      R203      1
    x119      R204      1
    x119      R205      1
    x119      R206      1
    x119      R207      1
    x119      R208      1
    x119      R209      1
RHS
    RHS1      R0        1
    RHS1      R1        1
    RHS1      R2        1
    RHS1      R3        1
    RHS1      R4        1
    RHS1      R5        1
    RHS1      R6        1
    RHS1      R7        1
    RHS1      R8        1
    RHS1      R9        1
    RHS1      R10       1
    RHS1      R11       1
    RHS1      R12       1
    RHS1      R13       1
    RHS1      R14       1
    RHS1      R15       1
    RHS1      R16       1
    RHS1      R17       1
    RHS1      R18       1
    RHS1      R19       1
    RHS1      R20       1
    RHS1      R21       1
    RHS1      R22       1
    RHS1      R23       1
    RHS1      R24       1
    RHS1      R25       1
    RHS1      R26       1
    RHS1      R27       1
    RHS1      R28       1
    RHS1      R29       1
    RHS1      R30       1
    RHS1      R31       1
    RHS1      R32       1
    RHS1      R33       1
    RHS1      R34       1
    RHS1      R35       1
    RHS1      R36       1
    RHS1      R37       1
    RHS1      R38       1
    RHS1      R39       1
    RHS1      R40       1
    RHS1      R41       1
    RHS1      R42       1
    RHS1      R43       1
    RHS1      R44       1
    RHS1      R45       1
    RHS1      R46       1
    RHS1      R47       1
    RHS1      R48       1
    RHS1      R49       1
    RHS1      R50       1
    RHS1      R51       1
    RHS1      R52       1
    RHS1      R53       1
    RHS1      R54       1
    RHS1      R55       1
    RHS1      R56       1
    RHS1      R57       1
    RHS1      R58       1
    RHS1      R59       1
    RHS1      R60       1
    RHS1      R61       1
    RHS1      R62       1
    RHS1      R63       1
    RHS1      R64       1
    RHS1      R65       1
    RHS1      R66       1
    RHS1      R67       1
    RHS1      R68       1
    RHS1      R69       1
    RHS1      R70       1
    RHS1      R71       1
    RHS1      R72       1
    RHS1      R73       1
    RHS1      R74       1
    RHS1      R75       1
    RHS1      R76       1
    RHS1      R77       1
    RHS1      R78       1
    RHS1      R79       1
    RHS1      R80       1
    RHS1      R81       1
    RHS1      R82       1
    RHS1      R83       1
    RHS1      R84       1
    RHS1      R85       1
    RHS1      R86       1
    RHS1      R87       1
    RHS1      R88       1
    RHS1      R89       1
    RHS1      R90       1
    RHS1      R91       1
    RHS1      R92       1
    RHS1      R93       1
    RHS1      R94       1
    RHS1      R95       1
    RHS1      R96       1
    RHS1      R97       1
    RHS1      R98       1
    RHS1      R99       1
    RHS1      R100      1
    RHS1      R101      1
    RHS1      R102      1
    RHS1      R103      1
    RHS1      R104      1
    RHS1      R105      1
    RHS1      R106      1
    RHS1      R107      1
    RHS1      R108      1
    RHS1      R109      1
    RHS1      R110      1
    RHS1      R111      1
    RHS1      R112      1
    RHS1      R113      1
    RHS1      R114      1
    RHS1      R115      1
    RHS1      R116      1
    RHS1      R117      1
    RHS1      R118      1
    RHS1      R119      1
    RHS1      R120      1
    RHS1      R121      1
    RHS1      R122      1
    RHS1      R123      1
    RHS1      R124      1
    RHS1      R125      1
    RHS1      R126      1
    RHS1      R127      1
    RHS1      R128      1
    RHS1      R129      1
    RHS1      R130      1
    RHS1      R131      1
    RHS1      R132      1
    RHS1      R133      1
    RHS1      R134      1
    RHS1      R135      1
    RHS1      R136      1
    RHS1      R137      1
    RHS1      R138      1
    RHS1      R139      1
    RHS1      R140      1
    RHS1      R141      1
    RHS1      R142      1
    RHS1      R143      1
    RHS1      R144      1
    RHS1      R145      1
    RHS1      R146      1
    RHS1      R147      1
    RHS1      R148      1
    RHS1      R149      1
    RHS1      R150      1
    RHS1      R151      1
    RHS1      R152      1
    RHS1      R153      1
    RHS1      R154      1
    RHS1      R155      1
    RHS1      R156      1
    RHS1      R157      1
    RHS1      R158      1
    RHS1      R159      1
    RHS1      R160      1
    RHS1      R161      1
    RHS1      R162      1
    RHS1      R163      1
    RHS1      R164      1
    RHS1      R165      1
    RHS1      R166      1
    RHS1      R167      1
    RHS1      R168      1
    RHS1      R169      1
    RHS1      R170      1
    RHS1      R171      1
    RHS1      R172      1
    RHS1      R173      1
    RHS1      R174      1
    RHS1      R175      1
    RHS1      R176      1
    RHS1      R177      1
    RHS1      R178      1
    RHS1      R179      1
    RHS1      R180      1
    RHS1      R181      1
    RHS1      R182      1
    RHS1      R183      1
    RHS1      R184      1
    RHS1      R185      1
    RHS1      R186      1
    RHS1      R187      1
    RHS1      R188      1
    RHS1      R189      1
    RHS1      R190      1
    RHS1      R191      1
    RHS1      R192      1
    RHS1      R193      1
    RHS1      R194      1
    RHS1      R195      1
    RHS1      R196      1
    RHS1      R197      1
    RHS1      R198      1
    RHS1      R199      1
    RHS1      R200      1
    RHS1      R201      1
    RHS1      R202      1
    RHS1      R203      1
    RHS1      R204      1
    RHS1      R205      1
    RHS1      R206      1
    RHS1      R207      1
    RHS1      R208      1
    RHS1      R209      1
BOUNDS
 UP BND1      x0        1
 UP BND1      x1        1
 UP BND1      x2        1
 UP BND1      x3        1
 UP BND1      x4        1
 UP BND1      x5        1
 UP BND1      x6        1
 UP BND1      x7        1
 UP BND1      x8        1
 UP BND1      x9        1
 UP BND1      x10       1
 UP BND1      x11       1
 UP BND1      x12       1
 UP BND1      x13       1
 UP BND1      x14       1
 UP BND1      x15       1
 UP BND1      x16       1
 UP BND1      x17       1
 UP BND1      x18       1
 UP BND1      x19       1
 UP BND1      x20       1
 UP BND1      x21       1
 UP BND1      x22       1
 UP BND1      x23       1
 UP BND1      x24       1
 UP BND1      x25       1
 UP BND1      x26       1
 UP BND1      x27       1
 UP BND1      x28       1
 UP BND1      x29       1
 UP BND1      x30       1
 UP BND1      x31       1
 UP BND1      x32       1
 UP BND1      x33       1
 UP BND1      x34       1
 UP BND1      x35       1
 UP BND1      x36       1
 UP BND1      x37       1
 UP BND1      x38       1
 UP BND1      x39       1
 UP BND1      x40       1
 UP BND1      x41       1
 UP BND1      x42       1
 UP BND1      x43       1
 UP BND1      x44       1
 UP BND1      x45       1
 UP BND1      x46       1
 UP BND1      x47       1
 UP BND1      x48       1
 UP BND1      x49       1
 UP BND1      x50       1
 UP BND1      x51       1
 UP BND1      x52       1
 UP BND1      x53       1
 UP BND1      x54       1
 UP BND1      x55       1
 UP BND1      x56       1
 UP BND1      x57       1
 UP BND1      x58       1
 UP BND1      x59       1
 UP BND1      x60       1
 UP BND1      x61       1
 UP BND1      x62       1
 UP BND1      x63       1
 UP BND1      x64       1
 UP BND1      x65       1
 UP BND1      x66       1
 UP BND1      x67       1
 UP BND1      x68       1
 UP BND1      x69       1
 UP BND1      x70       1
 UP BND1      x71       1
 UP BND1      x72       1
 UP BND1      x73       1
 UP BND1      x74       1
 UP BND1      x75       1
 UP BND1      x76       1
 UP BND1      x77       1
 UP BND1      x78       1
 UP BND1      x79       1
 UP BND1      x80       1
 UP BND1      x81       1
 UP BND1      x82       1
 UP BND1      x83       1
 UP BND1      x84       1
 UP BND1      x85       1
 UP BND1      x86       1
 UP BND1      x87       1
 UP BND1      x88       1
 UP BND1      x89       1
 UP BND1      x90       1
 UP BND1      x91       1
 UP BND1      x92       1
 UP BND1      x93       1
 UP BND1      x94       1
 UP BND1      x95       1
 UP BND1      x96       1
 UP BND1      x97       1
 UP BND1      x98       1
 UP BND1      x99       1
 UP BND1      x100      1
 UP BND1      x101      1
 UP BND1      x102      1
 UP BND1      x103      1
 UP BND1      x104      1
 UP BND1      x105      1
 UP BND1      x106      1
 UP BND1      x107      1
 UP BND1      x108      1
 UP BND1      x109      1
 UP BND1      x110      1
 UP BND1      x111      1
 UP BND1      x112      1
 UP BND1      x113      1
 UP BND1      x114      1
 UP BND1      x115      1
 UP BND1      x116      1
 UP BND1      x117      1
 UP BND1      x118      1
 UP BND1      x119      1
ENDATA
